StringID   Type       x          y          demand     ReadyTime  DueDate    ServiceTime
D0         d              30.323    38.220      0.000      0.000     23.983      0.000
S0         f              30.323    38.220      0.000      0.000     23.983      0.000
S1         f               4.700    83.020      0.000      0.000     23.983      0.000
S2         f              33.320    67.900      0.000      0.000     23.983      0.000
C0         c              26.178    68.244      0.005     12.028     12.616      0.150
C1         c              38.424    65.368      0.002     10.326     10.798      0.150
C2         c              51.076    87.821      0.068     11.273     11.771      0.050
C3         c              20.204     9.665      0.001     19.688     20.274      0.033
C4         c              58.389    59.074      0.004     16.802     17.354      0.050

Q Vehicle fuel tank capacity /127.1000/
C Vehicle load capacity /0.9600/
r fuel consumption rate /0.4566/
g inverse refueling rate /0.0069/
v average Velocity /31.8400/
gv charging speed /144.2400/

--------------------
instance_id /657/
number of clusters /2/
working_startTime (hour) /8.00/
working_endTime (hour) /21.08/
instance_endTime (hour) /23.98/
service_time_type /random/
demand_type /20_80/
instance_type /RC/
instance x range /[0.0, 100.0]/
instance y range /[0.0, 100.0]/
cs_time_to_depot (hour)/[1.620912834426711,0.9369010806496136]/
